(declare-fun temp84382_1 () (_ BitVec 64))
(declare-fun temp84382_2 () (_ BitVec 64))
(declare-fun var77740 () (_ BitVec 64))
(declare-fun k!0 () Bool)
(declare-fun ARGNAME_filter_NAMEEND_DIM () (_ BitVec 64))
(declare-fun ARGNAME_data_format_NAMEEND_STRFMT () (_ BitVec 64))
(declare-fun temp84382_3 () (_ BitVec 64))
(declare-fun ARGNAME_out_backprop_NAMEEND_DIM () (_ BitVec 64))
(declare-fun var77770 () (_ BitVec 64))
(declare-fun temp84382_4 () (_ BitVec 64))
(declare-fun temp84382_5 () (_ BitVec 64))
(declare-fun ARGNAME_filter_NAMEEND_DIMSIZE
             ()
             (Array (_ BitVec 64) (_ BitVec 64)))
(declare-fun temp84382_6 () (_ BitVec 64))
(declare-fun temp84382_7 () (_ BitVec 64))
(declare-fun temp84382_8 () (_ BitVec 64))
(declare-fun temp84382_9 () (_ BitVec 64))
(declare-fun temp84382_10 () (_ BitVec 64))
(declare-fun temp84382_11 () (_ BitVec 64))
(declare-fun temp84382_12 () (_ BitVec 64))
(declare-fun temp84382_13 () (_ BitVec 64))
(declare-fun temp84382_14 () (_ BitVec 64))
(declare-fun temp84382_15 () (_ BitVec 64))
(declare-fun temp84382_16 () (_ BitVec 64))
(declare-fun temp84382_17 () (_ BitVec 64))
(declare-fun temp84382_18 () (_ BitVec 64))
(declare-fun var77799 () (_ BitVec 64))
(declare-fun temp84382_19 () (_ BitVec 64))
(declare-fun ARGNAME_out_backprop_NAMEEND_DIMSIZE
             ()
             (Array (_ BitVec 64) (_ BitVec 64)))
(declare-fun temp84382_20 () (_ BitVec 64))
(declare-fun temp84382_21 () (_ BitVec 64))
(declare-fun temp84382_22 () (_ BitVec 64))
(declare-fun temp84382_23 () (_ BitVec 64))
(declare-fun temp84382_24 () (_ BitVec 64))
(declare-fun temp84382_25 () (_ BitVec 64))
(declare-fun temp84382_26 () (_ BitVec 64))
(declare-fun temp84382_27 () (_ BitVec 64))
(declare-fun temp84382_28 () (_ BitVec 64))
(declare-fun temp84382_29 () (_ BitVec 64))
(declare-fun temp84382_30 () (_ BitVec 64))
(declare-fun temp84382_31 () (_ BitVec 64))
(declare-fun temp84382_32 () (_ BitVec 64))
(declare-fun var77832 () (_ BitVec 64))
(declare-fun temp84382_33 () (_ BitVec 64))
(declare-fun temp84382_34 () (_ BitVec 64))
(declare-fun var77833 () (_ BitVec 64))
(declare-fun var77834 () (_ BitVec 64))
(declare-fun temp84382_35 () (_ BitVec 64))
(declare-fun temp84382_36 () (_ BitVec 64))
(declare-fun var275510 () (_ BitVec 64))
(declare-fun temp84382_37 () (_ BitVec 64))
(declare-fun var275528 () (_ BitVec 64))
(declare-fun temp84382_38 () (_ BitVec 64))
(declare-fun temp84382_40 () (_ BitVec 64))
(declare-fun temp84382_39 () (_ BitVec 64))
(declare-fun temp84382_41 () (_ BitVec 64))
(declare-fun var472118 () (_ BitVec 64))
(declare-fun temp84382_42 () (_ BitVec 64))
(declare-fun var472136 () (_ BitVec 64))
(declare-fun temp84382_43 () (_ BitVec 64))
(declare-fun temp84382_45 () (_ BitVec 64))
(declare-fun temp84382_44 () (_ BitVec 64))
(declare-fun temp84382_47 () (_ BitVec 64))
(declare-fun temp84382_46 () (_ BitVec 64))
(declare-fun temp84382_48 () (_ BitVec 64))
(declare-fun var603190 () (_ BitVec 64))
(declare-fun temp84382_49 () (_ BitVec 64))
(declare-fun var603208 () (_ BitVec 64))
(declare-fun temp84382_50 () (_ BitVec 64))
(declare-fun temp84382_52 () (_ BitVec 64))
(declare-fun temp84382_51 () (_ BitVec 64))
(declare-fun temp84382_54 () (_ BitVec 64))
(declare-fun temp84382_53 () (_ BitVec 64))
(declare-fun temp84382_56 () (_ BitVec 64))
(declare-fun temp84382_55 () (_ BitVec 64))
(declare-fun temp84382_57 () (_ BitVec 64))
(declare-fun var795723 () (_ BitVec 64))
(declare-fun var795702 () (_ BitVec 64))
(declare-fun var730134 () (_ BitVec 64))
(declare-fun temp84382_58 () (_ BitVec 64))
(declare-fun temp84382_59 () (_ BitVec 64))
(declare-fun var861259 () (_ BitVec 64))
(declare-fun var861238 () (_ BitVec 64))
(declare-fun var730144 () (_ BitVec 64))
(declare-fun temp84382_60 () (_ BitVec 64))
(declare-fun temp84382_62 () (_ BitVec 64))
(declare-fun temp84382_61 () (_ BitVec 64))
(declare-fun temp84382_64 () (_ BitVec 64))
(declare-fun temp84382_63 () (_ BitVec 64))
(declare-fun temp84382_66 () (_ BitVec 64))
(declare-fun temp84382_65 () (_ BitVec 64))
(declare-fun temp84382_67 () (_ BitVec 64))
(declare-fun var1057842 () (_ BitVec 64))
(declare-fun temp84382_68 () (_ BitVec 64))
(declare-fun var1057843 () (_ BitVec 64))
(declare-fun var1057844 () (_ BitVec 64))
(declare-fun var1057840 () (_ BitVec 64))
(declare-fun var664540 () (_ BitVec 64))
(declare-fun temp84382_69 () (_ BitVec 64))
(declare-fun var1123378 () (_ BitVec 64))
(declare-fun temp84382_70 () (_ BitVec 64))
(declare-fun var1123379 () (_ BitVec 64))
(declare-fun var1123380 () (_ BitVec 64))
(declare-fun var1123376 () (_ BitVec 64))
(declare-fun var664547 () (_ BitVec 64))
(declare-fun temp84382_71 () (_ BitVec 64))
(declare-fun var1188914 () (_ BitVec 64))
(declare-fun temp84382_72 () (_ BitVec 64))
(declare-fun var1188915 () (_ BitVec 64))
(declare-fun var1188916 () (_ BitVec 64))
(declare-fun var1188912 () (_ BitVec 64))
(declare-fun var664552 () (_ BitVec 64))
(declare-fun var78095 () (_ BitVec 64))
(declare-fun temp84382_73 () (_ BitVec 64))
(declare-fun temp84382_74 () (_ BitVec 64))
(declare-fun var78184 () (_ BitVec 64))
(declare-fun temp84382_76 () (_ BitVec 64))
(declare-fun temp84382_75 () (_ BitVec 64))
(declare-fun temp84382_78 () (_ BitVec 64))
(declare-fun temp84382_77 () (_ BitVec 64))
(declare-fun temp84382_79 () (_ BitVec 64))
(declare-fun var78544 () (_ BitVec 64))
(declare-fun temp84382_80 () (_ BitVec 64))
(declare-fun var78545 () (_ BitVec 64))
(assert (or (= ARGNAME_data_format_NAMEEND_STRFMT #x0000000000000000)
    (= ARGNAME_data_format_NAMEEND_STRFMT #x0000000000000001)
    (= ARGNAME_data_format_NAMEEND_STRFMT #x0000000000000002)
    (= ARGNAME_data_format_NAMEEND_STRFMT #x0000000000000003)
    (= ARGNAME_data_format_NAMEEND_STRFMT #x0000000000000004)
    (= ARGNAME_data_format_NAMEEND_STRFMT #x0000000000000005)))
(assert (= temp84382_1 #x0000000000000005))
(assert (= var77740
   (ite (= ARGNAME_filter_NAMEEND_DIM temp84382_1)
        #x0000000000000001
        #x0000000000000000)))
(assert (= temp84382_2 #x0000000000000001))
(assert (= var77740 temp84382_2))
(assert (= temp84382_3 #x0000000000000005))
(assert (= var77770
   (ite (= ARGNAME_out_backprop_NAMEEND_DIM temp84382_3)
        #x0000000000000001
        #x0000000000000000)))
(assert (= temp84382_4 #x0000000000000001))
(assert (= var77770 temp84382_4))
(assert (= temp84382_5 #x0000000000000000))
(assert (= temp84382_6 (select ARGNAME_filter_NAMEEND_DIMSIZE temp84382_5)))
(assert (= temp84382_7 #x0000000000000001))
(assert (= temp84382_8 (select ARGNAME_filter_NAMEEND_DIMSIZE temp84382_7)))
(assert (= temp84382_9 #x0000000000000002))
(assert (= temp84382_10 (select ARGNAME_filter_NAMEEND_DIMSIZE temp84382_9)))
(assert (= temp84382_11 #x0000000000000003))
(assert (= temp84382_12 (select ARGNAME_filter_NAMEEND_DIMSIZE temp84382_11)))
(assert (= temp84382_13 #x0000000000000004))
(assert (= temp84382_14 (select ARGNAME_filter_NAMEEND_DIMSIZE temp84382_13)))
(assert (= temp84382_15 #x0000000000000005))
(assert (= temp84382_16 (select ARGNAME_filter_NAMEEND_DIMSIZE temp84382_15)))
(assert (= temp84382_17 #x0000000000000003))
(assert (= temp84382_18 (select ARGNAME_filter_NAMEEND_DIMSIZE temp84382_17)))
(assert (= var77799 temp84382_18))
(assert (= temp84382_19 #x0000000000000000))
(assert (= temp84382_20 (select ARGNAME_out_backprop_NAMEEND_DIMSIZE temp84382_19)))
(assert (= temp84382_21 #x0000000000000001))
(assert (= temp84382_22 (select ARGNAME_out_backprop_NAMEEND_DIMSIZE temp84382_21)))
(assert (= temp84382_23 #x0000000000000002))
(assert (= temp84382_24 (select ARGNAME_out_backprop_NAMEEND_DIMSIZE temp84382_23)))
(assert (= temp84382_25 #x0000000000000003))
(assert (= temp84382_26 (select ARGNAME_out_backprop_NAMEEND_DIMSIZE temp84382_25)))
(assert (= temp84382_27 #x0000000000000004))
(assert (= temp84382_28 (select ARGNAME_out_backprop_NAMEEND_DIMSIZE temp84382_27)))
(assert (= temp84382_29 #x0000000000000005))
(assert (= temp84382_30 (select ARGNAME_out_backprop_NAMEEND_DIMSIZE temp84382_29)))
(assert (= temp84382_31 #x0000000000000004))
(assert (= temp84382_32 (select ARGNAME_out_backprop_NAMEEND_DIMSIZE temp84382_31)))
(assert (= var77832 temp84382_32))
(assert (= temp84382_33 #x0000000000000004))
(assert (= temp84382_34 (select ARGNAME_filter_NAMEEND_DIMSIZE temp84382_33)))
(assert (= var77833 temp84382_34))
(assert (= var77834 (ite (= var77832 var77833) #x0000000000000001 #x0000000000000000)))
(assert (= temp84382_35 #x0000000000000001))
(assert (= var77834 temp84382_35))
(assert (= temp84382_36 #x0000000000000001))
(assert (= var275510 temp84382_36))
(assert (= temp84382_37 #x0000000000000001))
(assert (= var275528
   (ite (bvslt var275510 temp84382_37) #x0000000000000001 #x0000000000000000)))
(assert (= temp84382_38 #x0000000000000000))
(assert (= var275528 temp84382_38))
(assert (= temp84382_40 #x0000000000000000))
(assert (= temp84382_39 temp84382_40))
(assert (= temp84382_41 #x0000000000000001))
(assert (= var472118 temp84382_41))
(assert (= temp84382_42 #x0000000000000001))
(assert (= var472136
   (ite (bvslt var472118 temp84382_42) #x0000000000000001 #x0000000000000000)))
(assert (= temp84382_43 #x0000000000000000))
(assert (= var472136 temp84382_43))
(assert (= temp84382_45 #x0000000000000000))
(assert (= temp84382_44 temp84382_45))
(assert (= temp84382_47 #x0000000000000000))
(assert (= temp84382_46 temp84382_47))
(assert (= temp84382_48 #x0000000000000001))
(assert (= var603190 temp84382_48))
(assert (= temp84382_49 #x0000000000000001))
(assert (= var603208
   (ite (bvslt var603190 temp84382_49) #x0000000000000001 #x0000000000000000)))
(assert (= temp84382_50 #x0000000000000000))
(assert (= var603208 temp84382_50))
(assert (= temp84382_52 #x00000000000000ff))
(assert (= temp84382_51 temp84382_52))
(assert (= temp84382_54 #x00000000000000ff))
(assert (= temp84382_53 temp84382_54))
(assert (= temp84382_56 #x00000000000000ff))
(assert (= temp84382_55 temp84382_56))
(assert (= temp84382_57 #x0000000000000000))
(assert (= var795723 temp84382_57))
(assert (= var795702 var795723))
(assert (= var730134 var795702))
(assert (= temp84382_58 #x0000000000000000))
(assert (= var730134 temp84382_58))
(assert (= temp84382_59 #x0000000000000000))
(assert (= var861259 temp84382_59))
(assert (= var861238 var861259))
(assert (= var730144 var861238))
(assert (= temp84382_60 #x0000000000000000))
(assert (= var730144 temp84382_60))
(assert (= temp84382_62 #x0000000000000000))
(assert (= temp84382_61 temp84382_62))
(assert (= temp84382_64 #x0000000000000000))
(assert (= temp84382_63 temp84382_64))
(assert (= temp84382_66 #x0000000000000000))
(assert (= temp84382_65 temp84382_66))
(assert (= temp84382_67 #x0000000000008000))
(assert (= var1057842 temp84382_67))
(assert (= temp84382_68 #x0000000000000001))
(assert (= var1057843
   (ite (bvslt temp84382_65 temp84382_68) #x0000000000000001 #x0000000000000000)))
(assert (= var1057844 (ite (= var1057843 #x0000000000000001) var1057842 temp84382_65)))
(assert (= var1057840 var1057844))
(assert (= var664540 var1057840))
(assert (= temp84382_69 #x0000000000040000))
(assert (= var1123378 temp84382_69))
(assert (= temp84382_70 #x0000000000000001))
(assert (= var1123379
   (ite (bvslt temp84382_63 temp84382_70) #x0000000000000001 #x0000000000000000)))
(assert (= var1123380 (ite (= var1123379 #x0000000000000001) var1123378 temp84382_63)))
(assert (= var1123376 var1123380))
(assert (= var664547 var1123376))
(assert (= temp84382_71 #x0000000000200000))
(assert (= var1188914 temp84382_71))
(assert (= temp84382_72 #x0000000000000001))
(assert (= var1188915
   (ite (bvslt temp84382_61 temp84382_72) #x0000000000000001 #x0000000000000000)))
(assert (= var1188916 (ite (= var1188915 #x0000000000000001) var1188914 temp84382_61)))
(assert (= var1188912 var1188916))
(assert (= var664552 var1188912))
(assert (= var78095 var664552))
(assert (= temp84382_73 #x0000000000000003))
(assert (= temp84382_74 #x0000000000000001))
(assert (= var78184 temp84382_74))
(assert (= temp84382_76 #x0000000000000001))
(assert (= temp84382_75 temp84382_76))
(assert (= temp84382_78 #x0000000000000001))
(assert (= temp84382_77 temp84382_78))
(assert (= temp84382_79 #x0000000000000000))
(assert (= var78544 temp84382_79))
(assert (= temp84382_80 #x0000000000000001))
(assert (= var78545 (bvadd var78544 temp84382_80)))
(model-add temp84382_1 () (_ BitVec 64) #x0000000000000005)
(model-add temp84382_2 () (_ BitVec 64) #x0000000000000001)
(model-add var77740 () (_ BitVec 64) #x0000000000000001)
(model-del k!0)
(model-add ARGNAME_filter_NAMEEND_DIM
           ()
           (_ BitVec 64)
           (ite k!0 #x0000000000000005 (bvnot #x0000000000000005)))


